Set parameter Username
Set parameter Threads to value 1
Academic license - for non-commercial use only - expires 2022-07-11
Set parameter TimeLimit to value 300
Gurobi Optimizer version 9.5.1 build v9.5.1rc2 (linux64)
Thread count: 2 physical cores, 4 logical processors, using up to 1 threads
Optimize a model with 1004 rows, 903 columns and 4281 nonzeros
Model fingerprint: 0x60cdbab0
Variable types: 40 continuous, 863 integer (863 binary)
Coefficient statistics:
  Matrix range     [1e-01, 5e+02]
  Objective range  [2e-02, 5e-01]
  Bounds range     [1e+00, 1e+00]
  RHS range        [1e+00, 1e+03]
Presolve removed 268 rows and 75 columns
Presolve time: 0.05s
Presolved: 736 rows, 828 columns, 3666 nonzeros
Variable types: 39 continuous, 789 integer (789 binary)

Root relaxation: objective 2.072026e+00, 768 iterations, 0.02 seconds (0.01 work units)

    Nodes    |    Current Node    |     Objective Bounds      |     Work
 Expl Unexpl |  Obj  Depth IntInf | Incumbent    BestBd   Gap | It/Node Time

     0     0    2.07203    0   96          -    2.07203      -     -    0s
H    0     0                       3.1377688    2.07203  34.0%     -    0s
H    0     0                       3.0422152    2.07203  31.9%     -    0s
H    0     0                       3.0313177    2.07203  31.6%     -    0s
     0     0    2.17491    0   78    3.03132    2.17491  28.3%     -    0s
     0     0    2.17779    0   92    3.03132    2.17779  28.2%     -    0s
     0     0    2.22808    0   84    3.03132    2.22808  26.5%     -    0s
H    0     0                       2.9517239    2.22808  24.5%     -    0s
H    0     0                       2.5502565    2.22808  12.6%     -    0s
     0     0    2.24145    0   84    2.55026    2.24145  12.1%     -    0s
     0     0    2.30738    0  113    2.55026    2.30738  9.52%     -    0s
     0     0    2.32415    0  110    2.55026    2.32415  8.87%     -    0s
     0     0    2.32931    0  120    2.55026    2.32931  8.66%     -    0s
     0     0    2.33032    0  138    2.55026    2.33032  8.62%     -    0s
     0     0    2.33042    0  128    2.55026    2.33042  8.62%     -    0s
     0     0    2.35400    0   96    2.55026    2.35400  7.70%     -    0s
H    0     0                       2.5482982    2.35400  7.62%     -    0s
     0     0    2.36588    0  104    2.54830    2.36588  7.16%     -    0s
     0     0    2.36797    0  100    2.54830    2.36797  7.08%     -    0s
     0     0    2.36874    0  103    2.54830    2.36874  7.05%     -    0s
     0     0    2.36890    0  103    2.54830    2.36890  7.04%     -    0s
     0     0    2.36896    0  109    2.54830    2.36896  7.04%     -    0s
     0     0    2.37346    0   99    2.54830    2.37346  6.86%     -    0s
     0     0    2.37473    0  106    2.54830    2.37473  6.81%     -    0s
     0     0    2.37480    0  120    2.54830    2.37480  6.81%     -    0s
     0     0    2.37960    0  113    2.54830    2.37960  6.62%     -    0s
     0     0    2.38003    0  105    2.54830    2.38003  6.60%     -    0s
     0     0    2.38023    0  106    2.54830    2.38023  6.60%     -    0s
     0     0    2.38059    0  129    2.54830    2.38059  6.58%     -    0s
     0     0    2.38073    0  133    2.54830    2.38073  6.58%     -    0s
     0     0    2.38414    0  118    2.54830    2.38414  6.44%     -    0s
     0     0    2.38587    0  114    2.54830    2.38587  6.37%     -    0s
     0     0    2.38678    0  120    2.54830    2.38678  6.34%     -    0s
     0     0    2.38729    0  132    2.54830    2.38729  6.32%     -    0s
     0     0    2.38737    0  128    2.54830    2.38737  6.32%     -    0s
     0     0    2.39053    0  125    2.54830    2.39053  6.19%     -    0s
     0     0    2.39154    0  124    2.54830    2.39154  6.15%     -    0s
     0     0    2.39191    0  119    2.54830    2.39191  6.14%     -    0s
     0     0    2.39310    0  108    2.54830    2.39310  6.09%     -    0s
     0     0    2.39322    0  126    2.54830    2.39322  6.09%     -    0s
     0     0    2.39554    0  109    2.54830    2.39554  5.99%     -    0s
     0     0    2.39669    0  118    2.54830    2.39669  5.95%     -    0s
     0     0    2.39696    0  130    2.54830    2.39696  5.94%     -    0s
     0     0    2.39721    0  141    2.54830    2.39721  5.93%     -    0s
     0     0    2.39749    0  159    2.54830    2.39749  5.92%     -    0s
     0     0    2.39749    0  161    2.54830    2.39749  5.92%     -    0s
     0     0    2.39851    0  134    2.54830    2.39851  5.88%     -    0s
     0     0    2.39929    0  132    2.54830    2.39929  5.85%     -    0s
     0     0    2.39956    0  144    2.54830    2.39956  5.84%     -    0s
     0     0    2.39961    0  147    2.54830    2.39961  5.83%     -    0s
     0     0    2.40019    0  132    2.54830    2.40019  5.81%     -    0s
     0     0    2.40019    0  132    2.54830    2.40019  5.81%     -    0s
     0     2    2.40084    0  132    2.54830    2.40084  5.79%     -    1s
H   52    33                       2.5108424    2.40423  4.25%  86.3    1s
*  219    97              18       2.5009856    2.41395  3.48%  62.7    2s
*  267   108              18       2.4951564    2.42051  2.99%  62.8    2s
*  272   102              16       2.4914637    2.42051  2.85%  61.7    2s
*  329   115               8       2.4899675    2.42801  2.49%  58.4    2s
*  330   113               8       2.4892398    2.42801  2.46%  58.2    2s
*  341    82               9       2.4764394    2.43194  1.80%  57.6    2s

Cutting planes:
  Gomory: 1
  Cover: 21
  Implied bound: 15
  Clique: 16
  MIR: 107
  StrongCG: 5
  RLT: 12
  Relax-and-lift: 122

Explored 481 nodes (29986 simplex iterations) in 2.69 seconds (1.88 work units)
Thread count was 1 (of 4 available processors)

Solution count 10: 2.47644 2.48924 2.48997 ... 2.95172

Optimal solution found (tolerance 1.00e-04)
Best objective 2.476439435035e+00, best bound 2.476330111707e+00, gap 0.0044%
